100
32
32
8
16
1
18
20
20
8
31
5
9
8
19
7
7
11
3
3
1
18
4
1
18
3
1
1
1
1
1
1
3
18
1
12
3
1
3
2
1
1
7
17
5
4
20
1
3
2
4
17
2
1
19
2
2
2
3
3
18
2
1
3
3
1
1
1
7
2
20
2
5
21
8
16
2
2
1
8
1
2
1
2
2
19
2
1
1
4
1
1
2
4
1
4
1
1
1
1
17
1